<number of tasks>
50

<cycle time>
1000

<order strength>
0.898


<task times>
1 413
2 561
3 336
4 392
5 360
6 397
7 415
8 773
9 632
10 416
11 516
12 357
13 556
14 674
15 619
16 669
17 450
18 606
19 345
20 462
21 391
22 606
23 592
24 310
25 725
26 395
27 238
28 515
29 551
30 520
31 523
32 472
33 356
34 549
35 401
36 628
37 517
38 386
39 366
40 412
41 395
42 575
43 472
44 314
45 584
46 573
47 393
48 483
49 717
50 514

<precedence relations>
1,11
1,12
1,13
2,4
2,5
3,4
3,5
4,6
4,7
4,8
5,6
5,7
5,8
6,9
6,10
7,9
7,10
8,9
8,10
9,11
9,12
9,13
10,11
10,12
10,13
11,14
11,15
11,16
12,14
12,15
12,16
13,14
13,15
13,16
14,17
14,18
14,19
14,20
15,17
15,18
15,19
15,20
16,17
16,18
16,19
16,20
17,21
17,22
17,23
18,21
18,22
18,23
19,21
19,22
19,23
20,21
20,22
20,23
21,24
21,25
22,24
22,25
23,24
23,25
24,26
24,27
24,28
24,29
25,26
25,27
25,28
25,29
26,30
26,31
27,30
27,31
28,30
29,31
29,33
30,32
30,33
30,34
30,35
31,32
32,36
32,37
33,47
33,49
34,36
35,49
36,38
36,39
37,39
38,40
38,41
38,42
39,49
40,43
41,47
41,48
42,44
43,45
43,46
43,47
44,45
44,46
44,47
45,48
45,49
46,49
46,50

<end>
